p cnf 126 1274
-37 -38 0
-37 -39 0
-37 -40 0
-37 -41 0
-37 -42 0
-37 -43 0
-37 -44 0
-37 -45 0
-38 -39 0
-38 -40 0
-38 -41 0
-38 -42 0
-38 -43 0
-38 -44 0
-38 -45 0
-39 -40 0
-39 -41 0
-39 -42 0
-39 -43 0
-39 -44 0
-39 -45 0
-40 -41 0
-40 -42 0
-40 -43 0
-40 -44 0
-40 -45 0
-41 -42 0
-41 -43 0
-41 -44 0
-41 -45 0
-42 -43 0
-42 -44 0
-42 -45 0
-43 -44 0
-43 -45 0
-44 -45 0
37 38 39 40 41 42 43 44 45 0
-46 -47 0
-46 -48 0
-46 -49 0
-46 -50 0
-46 -51 0
-46 -52 0
-46 -53 0
-46 -54 0
-47 -48 0
-47 -49 0
-47 -50 0
-47 -51 0
-47 -52 0
-47 -53 0
-47 -54 0
-48 -49 0
-48 -50 0
-48 -51 0
-48 -52 0
-48 -53 0
-48 -54 0
-49 -50 0
-49 -51 0
-49 -52 0
-49 -53 0
-49 -54 0
-50 -51 0
-50 -52 0
-50 -53 0
-50 -54 0
-51 -52 0
-51 -53 0
-51 -54 0
-52 -53 0
-52 -54 0
-53 -54 0
46 47 48 49 50 51 52 53 54 0
-55 -56 0
-55 -57 0
-55 -58 0
-55 -59 0
-55 -60 0
-55 -61 0
-55 -62 0
-55 -63 0
-56 -57 0
-56 -58 0
-56 -59 0
-56 -60 0
-56 -61 0
-56 -62 0
-56 -63 0
-57 -58 0
-57 -59 0
-57 -60 0
-57 -61 0
-57 -62 0
-57 -63 0
-58 -59 0
-58 -60 0
-58 -61 0
-58 -62 0
-58 -63 0
-59 -60 0
-59 -61 0
-59 -62 0
-59 -63 0
-60 -61 0
-60 -62 0
-60 -63 0
-61 -62 0
-61 -63 0
-62 -63 0
55 56 57 58 59 60 61 62 63 0
-64 -65 0
-64 -66 0
-64 -67 0
-64 -68 0
-64 -69 0
-64 -70 0
-64 -71 0
-64 -72 0
-65 -66 0
-65 -67 0
-65 -68 0
-65 -69 0
-65 -70 0
-65 -71 0
-65 -72 0
-66 -67 0
-66 -68 0
-66 -69 0
-66 -70 0
-66 -71 0
-66 -72 0
-67 -68 0
-67 -69 0
-67 -70 0
-67 -71 0
-67 -72 0
-68 -69 0
-68 -70 0
-68 -71 0
-68 -72 0
-69 -70 0
-69 -71 0
-69 -72 0
-70 -71 0
-70 -72 0
-71 -72 0
64 65 66 67 68 69 70 71 72 0
-73 -74 0
-73 -75 0
-73 -76 0
-73 -77 0
-73 -78 0
-73 -79 0
-73 -80 0
-73 -81 0
-74 -75 0
-74 -76 0
-74 -77 0
-74 -78 0
-74 -79 0
-74 -80 0
-74 -81 0
-75 -76 0
-75 -77 0
-75 -78 0
-75 -79 0
-75 -80 0
-75 -81 0
-76 -77 0
-76 -78 0
-76 -79 0
-76 -80 0
-76 -81 0
-77 -78 0
-77 -79 0
-77 -80 0
-77 -81 0
-78 -79 0
-78 -80 0
-78 -81 0
-79 -80 0
-79 -81 0
-80 -81 0
73 74 75 76 77 78 79 80 81 0
-37 -46 0
-37 -55 0
-37 -64 0
-37 -73 0
-46 -55 0
-46 -64 0
-46 -73 0
-55 -64 0
-55 -73 0
-64 -73 0
-38 -47 0
-38 -56 0
-38 -65 0
-38 -74 0
-47 -56 0
-47 -65 0
-47 -74 0
-56 -65 0
-56 -74 0
-65 -74 0
-39 -48 0
-39 -57 0
-39 -66 0
-39 -75 0
-48 -57 0
-48 -66 0
-48 -75 0
-57 -66 0
-57 -75 0
-66 -75 0
-40 -49 0
-40 -58 0
-40 -67 0
-40 -76 0
-49 -58 0
-49 -67 0
-49 -76 0
-58 -67 0
-58 -76 0
-67 -76 0
-41 -50 0
-41 -59 0
-41 -68 0
-41 -77 0
-50 -59 0
-50 -68 0
-50 -77 0
-59 -68 0
-59 -77 0
-68 -77 0
-42 -51 0
-42 -60 0
-42 -69 0
-42 -78 0
-51 -60 0
-51 -69 0
-51 -78 0
-60 -69 0
-60 -78 0
-69 -78 0
-43 -52 0
-43 -61 0
-43 -70 0
-43 -79 0
-52 -61 0
-52 -70 0
-52 -79 0
-61 -70 0
-61 -79 0
-70 -79 0
-44 -53 0
-44 -62 0
-44 -71 0
-44 -80 0
-53 -62 0
-53 -71 0
-53 -80 0
-62 -71 0
-62 -80 0
-71 -80 0
-45 -54 0
-45 -63 0
-45 -72 0
-45 -81 0
-54 -63 0
-54 -72 0
-54 -81 0
-63 -72 0
-63 -81 0
-72 -81 0
1 -37 -47 0
1 -37 -56 0
1 -37 -65 0
1 -37 -74 0
1 -46 -38 0
1 -46 -56 0
1 -46 -65 0
1 -46 -74 0
1 -55 -38 0
1 -55 -47 0
1 -55 -65 0
1 -55 -74 0
1 -64 -38 0
1 -64 -47 0
1 -64 -56 0
1 -64 -74 0
1 -73 -38 0
1 -73 -47 0
1 -73 -56 0
1 -73 -65 0
2 -37 -48 0
2 -37 -57 0
2 -37 -66 0
2 -37 -75 0
2 -46 -39 0
2 -46 -57 0
2 -46 -66 0
2 -46 -75 0
2 -55 -39 0
2 -55 -48 0
2 -55 -66 0
2 -55 -75 0
2 -64 -39 0
2 -64 -48 0
2 -64 -57 0
2 -64 -75 0
2 -73 -39 0
2 -73 -48 0
2 -73 -57 0
2 -73 -66 0
3 -37 -49 0
3 -37 -58 0
3 -37 -67 0
3 -37 -76 0
3 -46 -40 0
3 -46 -58 0
3 -46 -67 0
3 -46 -76 0
3 -55 -40 0
3 -55 -49 0
3 -55 -67 0
3 -55 -76 0
3 -64 -40 0
3 -64 -49 0
3 -64 -58 0
3 -64 -76 0
3 -73 -40 0
3 -73 -49 0
3 -73 -58 0
3 -73 -67 0
4 -37 -50 0
4 -37 -59 0
4 -37 -68 0
4 -37 -77 0
4 -46 -41 0
4 -46 -59 0
4 -46 -68 0
4 -46 -77 0
4 -55 -41 0
4 -55 -50 0
4 -55 -68 0
4 -55 -77 0
4 -64 -41 0
4 -64 -50 0
4 -64 -59 0
4 -64 -77 0
4 -73 -41 0
4 -73 -50 0
4 -73 -59 0
4 -73 -68 0
5 -37 -51 0
5 -37 -60 0
5 -37 -69 0
5 -37 -78 0
5 -46 -42 0
5 -46 -60 0
5 -46 -69 0
5 -46 -78 0
5 -55 -42 0
5 -55 -51 0
5 -55 -69 0
5 -55 -78 0
5 -64 -42 0
5 -64 -51 0
5 -64 -60 0
5 -64 -78 0
5 -73 -42 0
5 -73 -51 0
5 -73 -60 0
5 -73 -69 0
6 -37 -52 0
6 -37 -61 0
6 -37 -70 0
6 -37 -79 0
6 -46 -43 0
6 -46 -61 0
6 -46 -70 0
6 -46 -79 0
6 -55 -43 0
6 -55 -52 0
6 -55 -70 0
6 -55 -79 0
6 -64 -43 0
6 -64 -52 0
6 -64 -61 0
6 -64 -79 0
6 -73 -43 0
6 -73 -52 0
6 -73 -61 0
6 -73 -70 0
7 -37 -53 0
7 -37 -62 0
7 -37 -71 0
7 -37 -80 0
7 -46 -44 0
7 -46 -62 0
7 -46 -71 0
7 -46 -80 0
7 -55 -44 0
7 -55 -53 0
7 -55 -71 0
7 -55 -80 0
7 -64 -44 0
7 -64 -53 0
7 -64 -62 0
7 -64 -80 0
7 -73 -44 0
7 -73 -53 0
7 -73 -62 0
7 -73 -71 0
8 -37 -54 0
8 -37 -63 0
8 -37 -72 0
8 -37 -81 0
8 -46 -45 0
8 -46 -63 0
8 -46 -72 0
8 -46 -81 0
8 -55 -45 0
8 -55 -54 0
8 -55 -72 0
8 -55 -81 0
8 -64 -45 0
8 -64 -54 0
8 -64 -63 0
8 -64 -81 0
8 -73 -45 0
8 -73 -54 0
8 -73 -63 0
8 -73 -72 0
9 -38 -48 0
9 -38 -57 0
9 -38 -66 0
9 -38 -75 0
9 -47 -39 0
9 -47 -57 0
9 -47 -66 0
9 -47 -75 0
9 -56 -39 0
9 -56 -48 0
9 -56 -66 0
9 -56 -75 0
9 -65 -39 0
9 -65 -48 0
9 -65 -57 0
9 -65 -75 0
9 -74 -39 0
9 -74 -48 0
9 -74 -57 0
9 -74 -66 0
10 -38 -49 0
10 -38 -58 0
10 -38 -67 0
10 -38 -76 0
10 -47 -40 0
10 -47 -58 0
10 -47 -67 0
10 -47 -76 0
10 -56 -40 0
10 -56 -49 0
10 -56 -67 0
10 -56 -76 0
10 -65 -40 0
10 -65 -49 0
10 -65 -58 0
10 -65 -76 0
10 -74 -40 0
10 -74 -49 0
10 -74 -58 0
10 -74 -67 0
11 -38 -50 0
11 -38 -59 0
11 -38 -68 0
11 -38 -77 0
11 -47 -41 0
11 -47 -59 0
11 -47 -68 0
11 -47 -77 0
11 -56 -41 0
11 -56 -50 0
11 -56 -68 0
11 -56 -77 0
11 -65 -41 0
11 -65 -50 0
11 -65 -59 0
11 -65 -77 0
11 -74 -41 0
11 -74 -50 0
11 -74 -59 0
11 -74 -68 0
12 -38 -51 0
12 -38 -60 0
12 -38 -69 0
12 -38 -78 0
12 -47 -42 0
12 -47 -60 0
12 -47 -69 0
12 -47 -78 0
12 -56 -42 0
12 -56 -51 0
12 -56 -69 0
12 -56 -78 0
12 -65 -42 0
12 -65 -51 0
12 -65 -60 0
12 -65 -78 0
12 -74 -42 0
12 -74 -51 0
12 -74 -60 0
12 -74 -69 0
13 -38 -52 0
13 -38 -61 0
13 -38 -70 0
13 -38 -79 0
13 -47 -43 0
13 -47 -61 0
13 -47 -70 0
13 -47 -79 0
13 -56 -43 0
13 -56 -52 0
13 -56 -70 0
13 -56 -79 0
13 -65 -43 0
13 -65 -52 0
13 -65 -61 0
13 -65 -79 0
13 -74 -43 0
13 -74 -52 0
13 -74 -61 0
13 -74 -70 0
14 -38 -53 0
14 -38 -62 0
14 -38 -71 0
14 -38 -80 0
14 -47 -44 0
14 -47 -62 0
14 -47 -71 0
14 -47 -80 0
14 -56 -44 0
14 -56 -53 0
14 -56 -71 0
14 -56 -80 0
14 -65 -44 0
14 -65 -53 0
14 -65 -62 0
14 -65 -80 0
14 -74 -44 0
14 -74 -53 0
14 -74 -62 0
14 -74 -71 0
15 -38 -54 0
15 -38 -63 0
15 -38 -72 0
15 -38 -81 0
15 -47 -45 0
15 -47 -63 0
15 -47 -72 0
15 -47 -81 0
15 -56 -45 0
15 -56 -54 0
15 -56 -72 0
15 -56 -81 0
15 -65 -45 0
15 -65 -54 0
15 -65 -63 0
15 -65 -81 0
15 -74 -45 0
15 -74 -54 0
15 -74 -63 0
15 -74 -72 0
16 -39 -49 0
16 -39 -58 0
16 -39 -67 0
16 -39 -76 0
16 -48 -40 0
16 -48 -58 0
16 -48 -67 0
16 -48 -76 0
16 -57 -40 0
16 -57 -49 0
16 -57 -67 0
16 -57 -76 0
16 -66 -40 0
16 -66 -49 0
16 -66 -58 0
16 -66 -76 0
16 -75 -40 0
16 -75 -49 0
16 -75 -58 0
16 -75 -67 0
17 -39 -50 0
17 -39 -59 0
17 -39 -68 0
17 -39 -77 0
17 -48 -41 0
17 -48 -59 0
17 -48 -68 0
17 -48 -77 0
17 -57 -41 0
17 -57 -50 0
17 -57 -68 0
17 -57 -77 0
17 -66 -41 0
17 -66 -50 0
17 -66 -59 0
17 -66 -77 0
17 -75 -41 0
17 -75 -50 0
17 -75 -59 0
17 -75 -68 0
18 -39 -51 0
18 -39 -60 0
18 -39 -69 0
18 -39 -78 0
18 -48 -42 0
18 -48 -60 0
18 -48 -69 0
18 -48 -78 0
18 -57 -42 0
18 -57 -51 0
18 -57 -69 0
18 -57 -78 0
18 -66 -42 0
18 -66 -51 0
18 -66 -60 0
18 -66 -78 0
18 -75 -42 0
18 -75 -51 0
18 -75 -60 0
18 -75 -69 0
19 -39 -52 0
19 -39 -61 0
19 -39 -70 0
19 -39 -79 0
19 -48 -43 0
19 -48 -61 0
19 -48 -70 0
19 -48 -79 0
19 -57 -43 0
19 -57 -52 0
19 -57 -70 0
19 -57 -79 0
19 -66 -43 0
19 -66 -52 0
19 -66 -61 0
19 -66 -79 0
19 -75 -43 0
19 -75 -52 0
19 -75 -61 0
19 -75 -70 0
20 -39 -53 0
20 -39 -62 0
20 -39 -71 0
20 -39 -80 0
20 -48 -44 0
20 -48 -62 0
20 -48 -71 0
20 -48 -80 0
20 -57 -44 0
20 -57 -53 0
20 -57 -71 0
20 -57 -80 0
20 -66 -44 0
20 -66 -53 0
20 -66 -62 0
20 -66 -80 0
20 -75 -44 0
20 -75 -53 0
20 -75 -62 0
20 -75 -71 0
21 -39 -54 0
21 -39 -63 0
21 -39 -72 0
21 -39 -81 0
21 -48 -45 0
21 -48 -63 0
21 -48 -72 0
21 -48 -81 0
21 -57 -45 0
21 -57 -54 0
21 -57 -72 0
21 -57 -81 0
21 -66 -45 0
21 -66 -54 0
21 -66 -63 0
21 -66 -81 0
21 -75 -45 0
21 -75 -54 0
21 -75 -63 0
21 -75 -72 0
22 -40 -50 0
22 -40 -59 0
22 -40 -68 0
22 -40 -77 0
22 -49 -41 0
22 -49 -59 0
22 -49 -68 0
22 -49 -77 0
22 -58 -41 0
22 -58 -50 0
22 -58 -68 0
22 -58 -77 0
22 -67 -41 0
22 -67 -50 0
22 -67 -59 0
22 -67 -77 0
22 -76 -41 0
22 -76 -50 0
22 -76 -59 0
22 -76 -68 0
23 -40 -51 0
23 -40 -60 0
23 -40 -69 0
23 -40 -78 0
23 -49 -42 0
23 -49 -60 0
23 -49 -69 0
23 -49 -78 0
23 -58 -42 0
23 -58 -51 0
23 -58 -69 0
23 -58 -78 0
23 -67 -42 0
23 -67 -51 0
23 -67 -60 0
23 -67 -78 0
23 -76 -42 0
23 -76 -51 0
23 -76 -60 0
23 -76 -69 0
24 -40 -52 0
24 -40 -61 0
24 -40 -70 0
24 -40 -79 0
24 -49 -43 0
24 -49 -61 0
24 -49 -70 0
24 -49 -79 0
24 -58 -43 0
24 -58 -52 0
24 -58 -70 0
24 -58 -79 0
24 -67 -43 0
24 -67 -52 0
24 -67 -61 0
24 -67 -79 0
24 -76 -43 0
24 -76 -52 0
24 -76 -61 0
24 -76 -70 0
25 -40 -53 0
25 -40 -62 0
25 -40 -71 0
25 -40 -80 0
25 -49 -44 0
25 -49 -62 0
25 -49 -71 0
25 -49 -80 0
25 -58 -44 0
25 -58 -53 0
25 -58 -71 0
25 -58 -80 0
25 -67 -44 0
25 -67 -53 0
25 -67 -62 0
25 -67 -80 0
25 -76 -44 0
25 -76 -53 0
25 -76 -62 0
25 -76 -71 0
26 -40 -54 0
26 -40 -63 0
26 -40 -72 0
26 -40 -81 0
26 -49 -45 0
26 -49 -63 0
26 -49 -72 0
26 -49 -81 0
26 -58 -45 0
26 -58 -54 0
26 -58 -72 0
26 -58 -81 0
26 -67 -45 0
26 -67 -54 0
26 -67 -63 0
26 -67 -81 0
26 -76 -45 0
26 -76 -54 0
26 -76 -63 0
26 -76 -72 0
27 -41 -51 0
27 -41 -60 0
27 -41 -69 0
27 -41 -78 0
27 -50 -42 0
27 -50 -60 0
27 -50 -69 0
27 -50 -78 0
27 -59 -42 0
27 -59 -51 0
27 -59 -69 0
27 -59 -78 0
27 -68 -42 0
27 -68 -51 0
27 -68 -60 0
27 -68 -78 0
27 -77 -42 0
27 -77 -51 0
27 -77 -60 0
27 -77 -69 0
28 -41 -52 0
28 -41 -61 0
28 -41 -70 0
28 -41 -79 0
28 -50 -43 0
28 -50 -61 0
28 -50 -70 0
28 -50 -79 0
28 -59 -43 0
28 -59 -52 0
28 -59 -70 0
28 -59 -79 0
28 -68 -43 0
28 -68 -52 0
28 -68 -61 0
28 -68 -79 0
28 -77 -43 0
28 -77 -52 0
28 -77 -61 0
28 -77 -70 0
29 -41 -53 0
29 -41 -62 0
29 -41 -71 0
29 -41 -80 0
29 -50 -44 0
29 -50 -62 0
29 -50 -71 0
29 -50 -80 0
29 -59 -44 0
29 -59 -53 0
29 -59 -71 0
29 -59 -80 0
29 -68 -44 0
29 -68 -53 0
29 -68 -62 0
29 -68 -80 0
29 -77 -44 0
29 -77 -53 0
29 -77 -62 0
29 -77 -71 0
30 -41 -54 0
30 -41 -63 0
30 -41 -72 0
30 -41 -81 0
30 -50 -45 0
30 -50 -63 0
30 -50 -72 0
30 -50 -81 0
30 -59 -45 0
30 -59 -54 0
30 -59 -72 0
30 -59 -81 0
30 -68 -45 0
30 -68 -54 0
30 -68 -63 0
30 -68 -81 0
30 -77 -45 0
30 -77 -54 0
30 -77 -63 0
30 -77 -72 0
31 -42 -52 0
31 -42 -61 0
31 -42 -70 0
31 -42 -79 0
31 -51 -43 0
31 -51 -61 0
31 -51 -70 0
31 -51 -79 0
31 -60 -43 0
31 -60 -52 0
31 -60 -70 0
31 -60 -79 0
31 -69 -43 0
31 -69 -52 0
31 -69 -61 0
31 -69 -79 0
31 -78 -43 0
31 -78 -52 0
31 -78 -61 0
31 -78 -70 0
32 -42 -53 0
32 -42 -62 0
32 -42 -71 0
32 -42 -80 0
32 -51 -44 0
32 -51 -62 0
32 -51 -71 0
32 -51 -80 0
32 -60 -44 0
32 -60 -53 0
32 -60 -71 0
32 -60 -80 0
32 -69 -44 0
32 -69 -53 0
32 -69 -62 0
32 -69 -80 0
32 -78 -44 0
32 -78 -53 0
32 -78 -62 0
32 -78 -71 0
33 -42 -54 0
33 -42 -63 0
33 -42 -72 0
33 -42 -81 0
33 -51 -45 0
33 -51 -63 0
33 -51 -72 0
33 -51 -81 0
33 -60 -45 0
33 -60 -54 0
33 -60 -72 0
33 -60 -81 0
33 -69 -45 0
33 -69 -54 0
33 -69 -63 0
33 -69 -81 0
33 -78 -45 0
33 -78 -54 0
33 -78 -63 0
33 -78 -72 0
34 -43 -53 0
34 -43 -62 0
34 -43 -71 0
34 -43 -80 0
34 -52 -44 0
34 -52 -62 0
34 -52 -71 0
34 -52 -80 0
34 -61 -44 0
34 -61 -53 0
34 -61 -71 0
34 -61 -80 0
34 -70 -44 0
34 -70 -53 0
34 -70 -62 0
34 -70 -80 0
34 -79 -44 0
34 -79 -53 0
34 -79 -62 0
34 -79 -71 0
35 -43 -54 0
35 -43 -63 0
35 -43 -72 0
35 -43 -81 0
35 -52 -45 0
35 -52 -63 0
35 -52 -72 0
35 -52 -81 0
35 -61 -45 0
35 -61 -54 0
35 -61 -72 0
35 -61 -81 0
35 -70 -45 0
35 -70 -54 0
35 -70 -63 0
35 -70 -81 0
35 -79 -45 0
35 -79 -54 0
35 -79 -63 0
35 -79 -72 0
36 -44 -54 0
36 -44 -63 0
36 -44 -72 0
36 -44 -81 0
36 -53 -45 0
36 -53 -63 0
36 -53 -72 0
36 -53 -81 0
36 -62 -45 0
36 -62 -54 0
36 -62 -72 0
36 -62 -81 0
36 -71 -45 0
36 -71 -54 0
36 -71 -63 0
36 -71 -81 0
36 -80 -45 0
36 -80 -54 0
36 -80 -63 0
36 -80 -72 0
-82 -83 0
-82 -84 0
-82 -85 0
-82 -86 0
-83 -84 0
-83 -85 0
-83 -86 0
-84 -85 0
-84 -86 0
-85 -86 0
82 83 84 85 86 0
-87 -88 0
-87 -89 0
-87 -90 0
-87 -91 0
-88 -89 0
-88 -90 0
-88 -91 0
-89 -90 0
-89 -91 0
-90 -91 0
87 88 89 90 91 0
-92 -93 0
-92 -94 0
-92 -95 0
-92 -96 0
-93 -94 0
-93 -95 0
-93 -96 0
-94 -95 0
-94 -96 0
-95 -96 0
92 93 94 95 96 0
-97 -98 0
-97 -99 0
-97 -100 0
-97 -101 0
-98 -99 0
-98 -100 0
-98 -101 0
-99 -100 0
-99 -101 0
-100 -101 0
97 98 99 100 101 0
-102 -103 0
-102 -104 0
-102 -105 0
-102 -106 0
-103 -104 0
-103 -105 0
-103 -106 0
-104 -105 0
-104 -106 0
-105 -106 0
102 103 104 105 106 0
-107 -108 0
-107 -109 0
-107 -110 0
-107 -111 0
-108 -109 0
-108 -110 0
-108 -111 0
-109 -110 0
-109 -111 0
-110 -111 0
107 108 109 110 111 0
-112 -113 0
-112 -114 0
-112 -115 0
-112 -116 0
-113 -114 0
-113 -115 0
-113 -116 0
-114 -115 0
-114 -116 0
-115 -116 0
112 113 114 115 116 0
-117 -118 0
-117 -119 0
-117 -120 0
-117 -121 0
-118 -119 0
-118 -120 0
-118 -121 0
-119 -120 0
-119 -121 0
-120 -121 0
117 118 119 120 121 0
-122 -123 0
-122 -124 0
-122 -125 0
-122 -126 0
-123 -124 0
-123 -125 0
-123 -126 0
-124 -125 0
-124 -126 0
-125 -126 0
122 123 124 125 126 0
-1 -82 -87 0
-1 -83 -88 0
-1 -84 -89 0
-1 -85 -90 0
-1 -86 -91 0
-2 -82 -92 0
-2 -83 -93 0
-2 -84 -94 0
-2 -85 -95 0
-2 -86 -96 0
-3 -82 -97 0
-3 -83 -98 0
-3 -84 -99 0
-3 -85 -100 0
-3 -86 -101 0
-4 -82 -102 0
-4 -83 -103 0
-4 -84 -104 0
-4 -85 -105 0
-4 -86 -106 0
-5 -82 -107 0
-5 -83 -108 0
-5 -84 -109 0
-5 -85 -110 0
-5 -86 -111 0
-6 -82 -112 0
-6 -83 -113 0
-6 -84 -114 0
-6 -85 -115 0
-6 -86 -116 0
-7 -82 -117 0
-7 -83 -118 0
-7 -84 -119 0
-7 -85 -120 0
-7 -86 -121 0
-8 -82 -122 0
-8 -83 -123 0
-8 -84 -124 0
-8 -85 -125 0
-8 -86 -126 0
-9 -87 -92 0
-9 -88 -93 0
-9 -89 -94 0
-9 -90 -95 0
-9 -91 -96 0
-10 -87 -97 0
-10 -88 -98 0
-10 -89 -99 0
-10 -90 -100 0
-10 -91 -101 0
-11 -87 -102 0
-11 -88 -103 0
-11 -89 -104 0
-11 -90 -105 0
-11 -91 -106 0
-12 -87 -107 0
-12 -88 -108 0
-12 -89 -109 0
-12 -90 -110 0
-12 -91 -111 0
-13 -87 -112 0
-13 -88 -113 0
-13 -89 -114 0
-13 -90 -115 0
-13 -91 -116 0
-14 -87 -117 0
-14 -88 -118 0
-14 -89 -119 0
-14 -90 -120 0
-14 -91 -121 0
-15 -87 -122 0
-15 -88 -123 0
-15 -89 -124 0
-15 -90 -125 0
-15 -91 -126 0
-16 -92 -97 0
-16 -93 -98 0
-16 -94 -99 0
-16 -95 -100 0
-16 -96 -101 0
-17 -92 -102 0
-17 -93 -103 0
-17 -94 -104 0
-17 -95 -105 0
-17 -96 -106 0
-18 -92 -107 0
-18 -93 -108 0
-18 -94 -109 0
-18 -95 -110 0
-18 -96 -111 0
-19 -92 -112 0
-19 -93 -113 0
-19 -94 -114 0
-19 -95 -115 0
-19 -96 -116 0
-20 -92 -117 0
-20 -93 -118 0
-20 -94 -119 0
-20 -95 -120 0
-20 -96 -121 0
-21 -92 -122 0
-21 -93 -123 0
-21 -94 -124 0
-21 -95 -125 0
-21 -96 -126 0
-22 -97 -102 0
-22 -98 -103 0
-22 -99 -104 0
-22 -100 -105 0
-22 -101 -106 0
-23 -97 -107 0
-23 -98 -108 0
-23 -99 -109 0
-23 -100 -110 0
-23 -101 -111 0
-24 -97 -112 0
-24 -98 -113 0
-24 -99 -114 0
-24 -100 -115 0
-24 -101 -116 0
-25 -97 -117 0
-25 -98 -118 0
-25 -99 -119 0
-25 -100 -120 0
-25 -101 -121 0
-26 -97 -122 0
-26 -98 -123 0
-26 -99 -124 0
-26 -100 -125 0
-26 -101 -126 0
-27 -102 -107 0
-27 -103 -108 0
-27 -104 -109 0
-27 -105 -110 0
-27 -106 -111 0
-28 -102 -112 0
-28 -103 -113 0
-28 -104 -114 0
-28 -105 -115 0
-28 -106 -116 0
-29 -102 -117 0
-29 -103 -118 0
-29 -104 -119 0
-29 -105 -120 0
-29 -106 -121 0
-30 -102 -122 0
-30 -103 -123 0
-30 -104 -124 0
-30 -105 -125 0
-30 -106 -126 0
-31 -107 -112 0
-31 -108 -113 0
-31 -109 -114 0
-31 -110 -115 0
-31 -111 -116 0
-32 -107 -117 0
-32 -108 -118 0
-32 -109 -119 0
-32 -110 -120 0
-32 -111 -121 0
-33 -107 -122 0
-33 -108 -123 0
-33 -109 -124 0
-33 -110 -125 0
-33 -111 -126 0
-34 -112 -117 0
-34 -113 -118 0
-34 -114 -119 0
-34 -115 -120 0
-34 -116 -121 0
-35 -112 -122 0
-35 -113 -123 0
-35 -114 -124 0
-35 -115 -125 0
-35 -116 -126 0
-36 -117 -122 0
-36 -118 -123 0
-36 -119 -124 0
-36 -120 -125 0
-36 -121 -126 0